Created by VASPy
 1.000000000
   11.22863805    0.00000000    0.00000000
    0.00000000   11.22863805    0.00000000
    0.00000000    0.00000000   13.96992305
   Pt
   48
Selective Dynamics
Direct
    0.076249964535    0.033249996603    0.213670577501 T    T    T    
    0.326249964535    0.283249996603    0.213670577501 T    T    T    
    0.451249964535    0.158249996603    0.071582355625 T    T    T    
    0.201249964535    0.408249996603    0.071582355625 T    T    T    
    0.451249964535    0.158249996603    0.355758799378 T    T    T    
    0.201249964535    0.408249996603    0.355758799378 T    T    T    
    0.326249964535    0.033249996603    0.213670577501 T    T    T    
    0.076249964535    0.283249996603    0.213670577501 T    T    T    
    0.201249964535    0.158249996603    0.071582355625 T    T    T    
    0.451249964535    0.408249996603    0.071582355625 T    T    T    
    0.201249964535    0.158249996603    0.355758799378 T    T    T    
    0.451249964535    0.408249996603    0.355758799378 T    T    T    
    0.576249964535    0.033249996603    0.213670577501 T    T    T    
    0.826249964535    0.283249996603    0.213670577501 T    T    T    
    0.951249964535    0.158249996603    0.071582355625 T    T    T    
    0.701249964535    0.408249996603    0.071582355625 T    T    T    
    0.951249964535    0.158249996603    0.355758799378 T    T    T    
    0.701249964535    0.408249996603    0.355758799378 T    T    T    
    0.826249964535    0.033249996603    0.213670577501 T    T    T    
    0.576249964535    0.283249996603    0.213670577501 T    T    T    
    0.701249964535    0.158249996603    0.071582355625 T    T    T    
    0.951249964535    0.408249996603    0.071582355625 T    T    T    
    0.701249964535    0.158249996603    0.355758799378 T    T    T    
    0.951249964535    0.408249996603    0.355758799378 T    T    T    
    0.076249964535    0.533249996603    0.213670577501 T    T    T    
    0.326249964535    0.783249996603    0.213670577501 T    T    T    
    0.451249964535    0.658249996603    0.071582355625 T    T    T    
    0.201249964535    0.908249996603    0.071582355625 T    T    T    
    0.451249964535    0.658249996603    0.355758799378 T    T    T    
    0.201249964535    0.908249996603    0.355758799378 T    T    T    
    0.326249964535    0.533249996603    0.213670577501 T    T    T    
    0.076249964535    0.783249996603    0.213670577501 T    T    T    
    0.201249964535    0.658249996603    0.071582355625 T    T    T    
    0.451249964535    0.908249996603    0.071582355625 T    T    T    
    0.201249964535    0.658249996603    0.355758799378 T    T    T    
    0.451249964535    0.908249996603    0.355758799378 T    T    T    
    0.576249964535    0.533249996603    0.213670577501 T    T    T    
    0.826249964535    0.783249996603    0.213670577501 T    T    T    
    0.951249964535    0.658249996603    0.071582355625 T    T    T    
    0.701249964535    0.908249996603    0.071582355625 T    T    T    
    0.951249964535    0.658249996603    0.355758799378 T    T    T    
    0.701249964535    0.908249996603    0.355758799378 T    T    T    
    0.826249964535    0.533249996603    0.213670577501 T    T    T    
    0.576249964535    0.783249996603    0.213670577501 T    T    T    
    0.701249964535    0.658249996603    0.071582355625 T    T    T    
    0.951249964535    0.908249996603    0.071582355625 T    T    T    
    0.701249964535    0.658249996603    0.355758799378 T    T    T    
    0.951249964535    0.908249996603    0.355758799378 T    T    T    
