# Created by VASPy
ALGO = Fast
EDIFFG = -0.05
ENCUT = 450
IBRION = 2
ISIF = 2
ISMEAR = 1
ISPIN = 2
ISTART = 0
LCHARG = .False.
LREAL = Auto
LWAVE = .FALSE.
NCORE = 6
NELM = 300
NELMIN = 3
NSW = 900
NWRITE = 1
POTIM = 0.2
PREC = normal
SIGMA = 0.1
SYSTEM = O2
